
     Program PWSCF v.6.3 starts on 12Dec2018 at 22:29:59 

     This program is part of the open-source Quantum ESPRESSO suite
     for quantum simulation of materials; please cite
         "P. Giannozzi et al., J. Phys.:Condens. Matter 21 395502 (2009);
         "P. Giannozzi et al., J. Phys.:Condens. Matter 29 465901 (2017);
          URL http://www.quantum-espresso.org", 
     in publications or presentations arising from this work. More details at
     http://www.quantum-espresso.org/quote

     Parallel version (MPI), running on     4 processors

     MPI processes distributed on     1 nodes
     R & G space division:  proc/nbgrp/npool/nimage =       4
     Waiting for input...
     Reading input from standard input
     Message from routine read_cards :
     DEPRECATED: no units specified in ATOMIC_POSITIONS card
     Message from routine read_cards :
     ATOMIC_POSITIONS: units set to alat

     Current dimensions of program PWSCF are:
     Max number of different atomic species (ntypx) = 10
     Max number of k-points (npk) =  40000
     Max angular momentum in pseudopotentials (lmaxx) =  3

     Subspace diagonalization in iterative solution of the eigenvalue problem:
     a serial algorithm will be used


     Parallelization info
     --------------------
     sticks:   dense  smooth     PW     G-vecs:    dense   smooth      PW
     Min          30      30     10                  216      216      45
     Max          31      31     11                  218      218      46
     Sum         121     121     43                  869      869     181



     bravais-lattice index     =            2
     lattice parameter (alat)  =       7.5000  a.u.
     unit-cell volume          =     105.4688 (a.u.)^3
     number of atoms/cell      =            1
     number of atomic types    =            1
     number of electrons       =         3.00
     number of Kohn-Sham states=            6
     kinetic-energy cutoff     =      15.0000  Ry
     charge density cutoff     =      60.0000  Ry
     convergence threshold     =      1.0E-06
     mixing beta               =       0.7000
     number of iterations used =            8  plain     mixing
     Exchange-correlation      = SLA PZ NOGX NOGC ( 1  1  0  0 0 0)

     celldm(1)=   7.500000  celldm(2)=   0.000000  celldm(3)=   0.000000
     celldm(4)=   0.000000  celldm(5)=   0.000000  celldm(6)=   0.000000

     crystal axes: (cart. coord. in units of alat)
               a(1) = (  -0.500000   0.000000   0.500000 )  
               a(2) = (   0.000000   0.500000   0.500000 )  
               a(3) = (  -0.500000   0.500000   0.000000 )  

     reciprocal axes: (cart. coord. in units 2 pi/alat)
               b(1) = ( -1.000000 -1.000000  1.000000 )  
               b(2) = (  1.000000  1.000000  1.000000 )  
               b(3) = ( -1.000000  1.000000 -1.000000 )  


     PseudoPot. # 1 for Al read from file:
     /home/fabrizio/q-e/pseudo/Al.pz-vbc.UPF
     MD5 check sum: f06ceae8da0fe5c02c98e3688433298c
     Pseudo is Norm-conserving, Zval =  3.0
     Generated by new atomic code, or converted to UPF format
     Using radial grid of  171 points,  2 beta functions with: 
                l(1) =   0
                l(2) =   1

     atomic species   valence    mass     pseudopotential
        Al             3.00    26.98000     Al( 1.00)

     48 Sym. Ops., with inversion, found



   Cartesian axes

     site n.     atom                  positions (alat units)
         1           Al  tau(   1) = (   0.0000000   0.0000000   0.0000000  )

     number of k points=    60  Marzari-Vanderbilt smearing, width (Ry)=  0.0500
                       cart. coord. in units 2pi/alat
        k(    1) = (   0.0625000   0.0625000   0.0625000), wk =   0.0078125
        k(    2) = (   0.0625000   0.0625000   0.1875000), wk =   0.0234375
        k(    3) = (   0.0625000   0.0625000   0.3125000), wk =   0.0234375
        k(    4) = (   0.0625000   0.0625000   0.4375000), wk =   0.0234375
        k(    5) = (   0.0625000   0.0625000   0.5625000), wk =   0.0234375
        k(    6) = (   0.0625000   0.0625000   0.6875000), wk =   0.0234375
        k(    7) = (   0.0625000   0.0625000   0.8125000), wk =   0.0234375
        k(    8) = (   0.0625000   0.0625000   0.9375000), wk =   0.0234375
        k(    9) = (   0.0625000   0.1875000   0.1875000), wk =   0.0234375
        k(   10) = (   0.0625000   0.1875000   0.3125000), wk =   0.0468750
        k(   11) = (   0.0625000   0.1875000   0.4375000), wk =   0.0468750
        k(   12) = (   0.0625000   0.1875000   0.5625000), wk =   0.0468750
        k(   13) = (   0.0625000   0.1875000   0.6875000), wk =   0.0468750
        k(   14) = (   0.0625000   0.1875000   0.8125000), wk =   0.0468750
        k(   15) = (   0.0625000   0.1875000   0.9375000), wk =   0.0468750
        k(   16) = (   0.0625000   0.3125000   0.3125000), wk =   0.0234375
        k(   17) = (   0.0625000   0.3125000   0.4375000), wk =   0.0468750
        k(   18) = (   0.0625000   0.3125000   0.5625000), wk =   0.0468750
        k(   19) = (   0.0625000   0.3125000   0.6875000), wk =   0.0468750
        k(   20) = (   0.0625000   0.3125000   0.8125000), wk =   0.0468750
        k(   21) = (   0.0625000   0.3125000   0.9375000), wk =   0.0468750
        k(   22) = (   0.0625000   0.4375000   0.4375000), wk =   0.0234375
        k(   23) = (   0.0625000   0.4375000   0.5625000), wk =   0.0468750
        k(   24) = (   0.0625000   0.4375000   0.6875000), wk =   0.0468750
        k(   25) = (   0.0625000   0.4375000   0.8125000), wk =   0.0468750
        k(   26) = (   0.0625000   0.4375000   0.9375000), wk =   0.0468750
        k(   27) = (   0.0625000   0.5625000   0.5625000), wk =   0.0234375
        k(   28) = (   0.0625000   0.5625000   0.6875000), wk =   0.0468750
        k(   29) = (   0.0625000   0.5625000   0.8125000), wk =   0.0468750
        k(   30) = (   0.0625000   0.6875000   0.6875000), wk =   0.0234375
        k(   31) = (   0.0625000   0.6875000   0.8125000), wk =   0.0468750
        k(   32) = (   0.0625000   0.8125000   0.8125000), wk =   0.0234375
        k(   33) = (   0.1875000   0.1875000   0.1875000), wk =   0.0078125
        k(   34) = (   0.1875000   0.1875000   0.3125000), wk =   0.0234375
        k(   35) = (   0.1875000   0.1875000   0.4375000), wk =   0.0234375
        k(   36) = (   0.1875000   0.1875000   0.5625000), wk =   0.0234375
        k(   37) = (   0.1875000   0.1875000   0.6875000), wk =   0.0234375
        k(   38) = (   0.1875000   0.1875000   0.8125000), wk =   0.0234375
        k(   39) = (   0.1875000   0.3125000   0.3125000), wk =   0.0234375
        k(   40) = (   0.1875000   0.3125000   0.4375000), wk =   0.0468750
        k(   41) = (   0.1875000   0.3125000   0.5625000), wk =   0.0468750
        k(   42) = (   0.1875000   0.3125000   0.6875000), wk =   0.0468750
        k(   43) = (   0.1875000   0.3125000   0.8125000), wk =   0.0468750
        k(   44) = (   0.1875000   0.4375000   0.4375000), wk =   0.0234375
        k(   45) = (   0.1875000   0.4375000   0.5625000), wk =   0.0468750
        k(   46) = (   0.1875000   0.4375000   0.6875000), wk =   0.0468750
        k(   47) = (   0.1875000   0.4375000   0.8125000), wk =   0.0468750
        k(   48) = (   0.1875000   0.5625000   0.5625000), wk =   0.0234375
        k(   49) = (   0.1875000   0.5625000   0.6875000), wk =   0.0468750
        k(   50) = (   0.1875000   0.6875000   0.6875000), wk =   0.0234375
        k(   51) = (   0.3125000   0.3125000   0.3125000), wk =   0.0078125
        k(   52) = (   0.3125000   0.3125000   0.4375000), wk =   0.0234375
        k(   53) = (   0.3125000   0.3125000   0.5625000), wk =   0.0234375
        k(   54) = (   0.3125000   0.3125000   0.6875000), wk =   0.0234375
        k(   55) = (   0.3125000   0.4375000   0.4375000), wk =   0.0234375
        k(   56) = (   0.3125000   0.4375000   0.5625000), wk =   0.0468750
        k(   57) = (   0.3125000   0.4375000   0.6875000), wk =   0.0468750
        k(   58) = (   0.3125000   0.5625000   0.5625000), wk =   0.0234375
        k(   59) = (   0.4375000   0.4375000   0.4375000), wk =   0.0078125
        k(   60) = (   0.4375000   0.4375000   0.5625000), wk =   0.0234375

     Dense  grid:      869 G-vectors     FFT dimensions: (  15,  15,  15)

     Estimated max dynamical RAM per process >       0.36 MB

     Estimated total dynamical RAM >       1.45 MB

     Initial potential from superposition of free atoms

     starting charge    2.99794, renormalised to    3.00000
     Starting wfcs are    4 randomized atomic wfcs +    2 random wfcs

     total cpu time spent up to now is        0.4 secs

     Self-consistent Calculation

     iteration #  1     ecut=    15.00 Ry     beta= 0.70
     PPCG style diagonalization
--------------------------------------------------------------------------
mpirun noticed that process rank 0 with PID 0 on node fe12lx exited on signal 11 (Segmentation fault).
--------------------------------------------------------------------------
