
     Program PWSCF v.6.3 starts on 12Dec2018 at 22:29:55 

     This program is part of the open-source Quantum ESPRESSO suite
     for quantum simulation of materials; please cite
         "P. Giannozzi et al., J. Phys.:Condens. Matter 21 395502 (2009);
         "P. Giannozzi et al., J. Phys.:Condens. Matter 29 465901 (2017);
          URL http://www.quantum-espresso.org", 
     in publications or presentations arising from this work. More details at
     http://www.quantum-espresso.org/quote

     Parallel version (MPI), running on     4 processors

     MPI processes distributed on     1 nodes
     R & G space division:  proc/nbgrp/npool/nimage =       4
     Waiting for input...
     Reading input from standard input
     Message from routine read_cards :
     DEPRECATED: no units specified in ATOMIC_POSITIONS card
     Message from routine read_cards :
     ATOMIC_POSITIONS: units set to alat

     Current dimensions of program PWSCF are:
     Max number of different atomic species (ntypx) = 10
     Max number of k-points (npk) =  40000
     Max angular momentum in pseudopotentials (lmaxx) =  3

     Atomic positions and unit cell read from directory:
     /home/fabrizio/q-e/tempdir/silicon.save/


     Subspace diagonalization in iterative solution of the eigenvalue problem:
     a serial algorithm will be used


     Parallelization info
     --------------------
     sticks:   dense  smooth     PW     G-vecs:    dense   smooth      PW
     Min          63      63     22                  682      682     152
     Max          64      64     23                  686      686     153
     Sum         253     253     91                 2733     2733     609



     bravais-lattice index     =            2
     lattice parameter (alat)  =      10.2000  a.u.
     unit-cell volume          =     265.3020 (a.u.)^3
     number of atoms/cell      =            2
     number of atomic types    =            1
     number of electrons       =         8.00
     number of Kohn-Sham states=            8
     kinetic-energy cutoff     =      18.0000  Ry
     charge density cutoff     =      72.0000  Ry
     Exchange-correlation      = SLA PZ NOGX NOGC ( 1  1  0  0 0 0)

     celldm(1)=  10.200000  celldm(2)=   0.000000  celldm(3)=   0.000000
     celldm(4)=   0.000000  celldm(5)=   0.000000  celldm(6)=   0.000000

     crystal axes: (cart. coord. in units of alat)
               a(1) = (  -0.500000   0.000000   0.500000 )  
               a(2) = (   0.000000   0.500000   0.500000 )  
               a(3) = (  -0.500000   0.500000   0.000000 )  

     reciprocal axes: (cart. coord. in units 2 pi/alat)
               b(1) = ( -1.000000 -1.000000  1.000000 )  
               b(2) = (  1.000000  1.000000  1.000000 )  
               b(3) = ( -1.000000  1.000000 -1.000000 )  


     PseudoPot. # 1 for Si read from file:
     /home/fabrizio/q-e/pseudo/Si.pz-vbc.UPF
     MD5 check sum: 9f25e6ff280f3123e9b3a84715b2e9c9
     Pseudo is Norm-conserving, Zval =  4.0
     Generated by new atomic code, or converted to UPF format
     Using radial grid of  431 points,  2 beta functions with: 
                l(1) =   0
                l(2) =   1

     atomic species   valence    mass     pseudopotential
        Si             4.00    28.08600     Si( 1.00)

     48 Sym. Ops., with inversion, found (24 have fractional translation)



   Cartesian axes

     site n.     atom                  positions (alat units)
         1           Si  tau(   1) = (   0.0000000   0.0000000   0.0000000  )
         2           Si  tau(   2) = (   0.2500000   0.2500000   0.2500000  )

     number of k points=    28
                       cart. coord. in units 2pi/alat
        k(    1) = (   0.0000000   0.0000000   0.0000000), wk =   0.0714286
        k(    2) = (   0.0000000   0.0000000   0.1000000), wk =   0.0714286
        k(    3) = (   0.0000000   0.0000000   0.2000000), wk =   0.0714286
        k(    4) = (   0.0000000   0.0000000   0.3000000), wk =   0.0714286
        k(    5) = (   0.0000000   0.0000000   0.4000000), wk =   0.0714286
        k(    6) = (   0.0000000   0.0000000   0.5000000), wk =   0.0714286
        k(    7) = (   0.0000000   0.0000000   0.6000000), wk =   0.0714286
        k(    8) = (   0.0000000   0.0000000   0.7000000), wk =   0.0714286
        k(    9) = (   0.0000000   0.0000000   0.8000000), wk =   0.0714286
        k(   10) = (   0.0000000   0.0000000   0.9000000), wk =   0.0714286
        k(   11) = (   0.0000000   0.0000000   1.0000000), wk =   0.0714286
        k(   12) = (   0.0000000   0.0000000   0.0000000), wk =   0.0714286
        k(   13) = (   0.0000000   0.1000000   0.1000000), wk =   0.0714286
        k(   14) = (   0.0000000   0.2000000   0.2000000), wk =   0.0714286
        k(   15) = (   0.0000000   0.3000000   0.3000000), wk =   0.0714286
        k(   16) = (   0.0000000   0.4000000   0.4000000), wk =   0.0714286
        k(   17) = (   0.0000000   0.5000000   0.5000000), wk =   0.0714286
        k(   18) = (   0.0000000   0.6000000   0.6000000), wk =   0.0714286
        k(   19) = (   0.0000000   0.7000000   0.7000000), wk =   0.0714286
        k(   20) = (   0.0000000   0.8000000   0.8000000), wk =   0.0714286
        k(   21) = (   0.0000000   0.9000000   0.9000000), wk =   0.0714286
        k(   22) = (   0.0000000   1.0000000   1.0000000), wk =   0.0714286
        k(   23) = (   0.0000000   0.0000000   0.0000000), wk =   0.0714286
        k(   24) = (   0.1000000   0.1000000   0.1000000), wk =   0.0714286
        k(   25) = (   0.2000000   0.2000000   0.2000000), wk =   0.0714286
        k(   26) = (   0.3000000   0.3000000   0.3000000), wk =   0.0714286
        k(   27) = (   0.4000000   0.4000000   0.4000000), wk =   0.0714286
        k(   28) = (   0.5000000   0.5000000   0.5000000), wk =   0.0714286

     Dense  grid:     2733 G-vectors     FFT dimensions: (  20,  20,  20)

     Estimated max dynamical RAM per process >       0.37 MB

     Estimated total dynamical RAM >       1.47 MB

     The potential is recalculated from file :
     /home/fabrizio/q-e/tempdir/silicon.save/charge-density

     Starting wfcs are    8 randomized atomic wfcs

     Band Structure Calculation
     PPCG style diagonalization

     ethr =  1.25E-08,  avg # of iterations = 17.0

     total cpu time spent up to now is        2.3 secs

     End of band structure calculation

          k = 0.0000 0.0000 0.0000 (   331 PWs)   bands (ev):

   -25.9224 -22.9641 -20.0897 -18.9342  -5.8100   2.6964   5.3226   7.0426

          k = 0.0000 0.0000 0.1000 (   335 PWs)   bands (ev):

   -25.0905 -20.7382 -19.2947 -12.7155  -5.7669  -0.6520   4.8072   6.7862

          k = 0.0000 0.0000 0.2000 (   335 PWs)   bands (ev):

   -26.2029 -21.7913 -18.9358 -14.5974  -5.6338  -0.1583   4.2778   6.5429

          k = 0.0000 0.0000 0.3000 (   335 PWs)   bands (ev):

   -29.9829 -19.3858 -15.1131  -9.7028  -5.4133  -0.6340   6.2902   8.9077

          k = 0.0000 0.0000 0.4000 (   347 PWs)   bands (ev):

   -27.7289 -18.7445 -10.8434  -9.2341  -5.1064   4.3619   8.1137  10.0757

          k = 0.0000 0.0000 0.5000 (   343 PWs)   bands (ev):

   -26.1856 -25.1701 -17.2907 -16.1055  -4.7129   4.4704   8.6961  21.9168

          k = 0.0000 0.0000 0.6000 (   339 PWs)   bands (ev):

   -27.9817 -21.5063 -17.8503  -9.4743  -4.2359   0.9614   6.1821  11.9142

          k = 0.0000 0.0000 0.7000 (   335 PWs)   bands (ev):

   -28.7065 -20.1491 -15.4349  -6.1080  -3.6802   1.5681   5.8945  10.1122

          k = 0.0000 0.0000 0.8000 (   335 PWs)   bands (ev):

   -25.0182 -21.6409 -15.1678  -7.6225  -3.0531   8.6136  11.3625  13.7436

          k = 0.0000 0.0000 0.9000 (   342 PWs)   bands (ev):

   -27.7029 -21.3425 -18.1531  -4.1720  -0.7564   9.0376  10.9998  13.0550

          k = 0.0000 0.0000 1.0000 (   342 PWs)   bands (ev):

   -26.8427 -19.5414 -13.2959  -7.6747  -1.5979   4.4176  14.6484  20.6796

          k = 0.0000 0.0000 0.0000 (   331 PWs)   bands (ev):

   -24.0227 -20.5880 -19.8175  -6.1677  -5.8100   4.7671   6.4223  11.8206

          k = 0.0000 0.1000 0.1000 (   333 PWs)   bands (ev):

   -28.0170 -25.3238 -19.2181 -16.7018  -5.7219   3.2561   5.4625   7.6596

          k = 0.0000 0.2000 0.2000 (   335 PWs)   bands (ev):

   -24.1993 -18.4696 -17.7147  -7.7682  -5.4577   4.3337   5.7311   8.1418

          k = 0.0000 0.3000 0.3000 (   333 PWs)   bands (ev):

   -26.3552 -19.9704 -17.0616  -8.7851  -5.0244   3.5366   5.2338   8.2435

          k = 0.0000 0.4000 0.4000 (   333 PWs)   bands (ev):

   -29.4987 -18.8077 -14.5202  -9.9865  -4.4382   1.3283   5.8449  10.8524

          k = 0.0000 0.5000 0.5000 (   339 PWs)   bands (ev):

   -29.3552 -18.3334 -15.4030  -5.9614  -3.7277  -0.9185   6.1030  10.0758

          k = 0.0000 0.6000 0.6000 (   343 PWs)   bands (ev):

   -24.8101 -19.1823 -11.1139  -4.2634  -2.9585   7.1102  10.7232  13.0271

          k = 0.0000 0.7000 0.7000 (   351 PWs)   bands (ev):

   -31.6843 -28.7834 -17.9102 -12.7918  -2.2636   0.9539   7.1623  16.4488

          k = 0.0000 0.8000 0.8000 (   341 PWs)   bands (ev):

   -27.5595 -20.6410 -15.3733  -5.9260  -1.8119  -1.4797   7.6565   8.6557

          k = 0.0000 0.9000 0.9000 (   346 PWs)   bands (ev):

   -31.1763 -25.8207 -16.5234 -10.7689  -1.6352  -0.2023   6.9295  12.2159

          k = 0.0000 1.0000 1.0000 (   342 PWs)   bands (ev):

   -32.9875 -23.4374 -18.9516  -1.2266   1.8670   8.3240  10.6183  16.5163

          k = 0.0000 0.0000 0.0000 (   331 PWs)   bands (ev):

   -24.9158 -22.8923 -19.7662  -9.7678  -5.8100   3.9432   5.3842   7.3332

          k = 0.1000 0.1000 0.1000 (   335 PWs)   bands (ev):

   -26.4399 -20.2085 -18.7013 -13.9470  -5.6784   3.4782   5.4825   7.5875

          k = 0.2000 0.2000 0.2000 (   332 PWs)   bands (ev):

   -26.8881 -20.9916 -20.5405  -5.2849  -2.1527   6.6528   7.6615  11.1154

          k = 0.3000 0.3000 0.3000 (   344 PWs)   bands (ev):

   -26.3873 -14.6316 -12.9945  -4.6712  -4.6593   2.6383   5.4195  10.0462

          k = 0.4000 0.4000 0.4000 (   344 PWs)   bands (ev):

   -25.5086 -16.4450 -11.5754  -8.3389  -3.8911  -0.5544   8.4676  11.5153

          k = 0.5000 0.5000 0.5000 (   344 PWs)   bands (ev):

   -33.4365 -25.7649 -17.0714 -11.3768  -3.4180   2.0755   5.5622  15.2376

     Writing output data file silicon.save/

     init_run     :      0.10s CPU      0.29s WALL (       1 calls)
     electrons    :      0.65s CPU      1.60s WALL (       1 calls)

     Called by init_run:
     wfcinit      :      0.00s CPU      0.00s WALL (       1 calls)
     potinit      :      0.00s CPU      0.00s WALL (       1 calls)
     hinit0       :      0.01s CPU      0.04s WALL (       1 calls)

     Called by electrons:
     c_bands      :      0.65s CPU      1.59s WALL (       1 calls)
     v_of_rho     :      0.00s CPU      0.00s WALL (       1 calls)

     Called by c_bands:
     init_us_2    :      0.00s CPU      0.00s WALL (      28 calls)
     ppcg_k       :      0.62s CPU      1.52s WALL (      28 calls)
     wfcrot       :      0.02s CPU      0.06s WALL (      28 calls)

     Called by sum_band:

     Called by ppcg_*:
     h_psi        :      0.34s CPU      0.83s WALL (     505 calls)
     cdiaghg      :      0.02s CPU      0.02s WALL (     103 calls)
     ppcg:zgemm   :      0.15s CPU      0.29s WALL (    9195 calls)
     ppcg:hpsi    :      0.33s CPU      0.78s WALL (     477 calls)
     ppcg:cholQR  :      0.02s CPU      0.11s WALL (     402 calls)
     ppcg:RR      :      0.03s CPU      0.05s WALL (      75 calls)
     ppcg:ZTRSM   :      0.00s CPU      0.01s WALL (     402 calls)
     ppcg:lock    :      0.00s CPU      0.01s WALL (     103 calls)

     Called by h_psi:
     h_psi:pot    :      0.34s CPU      0.82s WALL (     505 calls)
     h_psi:calbec :      0.02s CPU      0.04s WALL (     505 calls)
     vloc_psi     :      0.32s CPU      0.77s WALL (     505 calls)
     add_vuspsi   :      0.00s CPU      0.01s WALL (     505 calls)

     General routines
     calbec       :      0.02s CPU      0.04s WALL (     505 calls)
     fft          :      0.00s CPU      0.00s WALL (       3 calls)
     fftw         :      0.26s CPU      0.71s WALL (    8080 calls)
     davcio       :      0.00s CPU      0.00s WALL (      56 calls)

     Parallel routines
     fft_scatt_xy :      0.04s CPU      0.06s WALL (    8083 calls)
     fft_scatt_yz :      0.09s CPU      0.51s WALL (    8083 calls)

     PWSCF        :      0.97s CPU      2.39s WALL


   This run was terminated on:  22:29:58  12Dec2018            

=------------------------------------------------------------------------------=
   JOB DONE.
=------------------------------------------------------------------------------=
