
     Program PWSCF v.6.3 starts on 12Dec2018 at 22:29: 8 

     This program is part of the open-source Quantum ESPRESSO suite
     for quantum simulation of materials; please cite
         "P. Giannozzi et al., J. Phys.:Condens. Matter 21 395502 (2009);
         "P. Giannozzi et al., J. Phys.:Condens. Matter 29 465901 (2017);
          URL http://www.quantum-espresso.org", 
     in publications or presentations arising from this work. More details at
     http://www.quantum-espresso.org/quote

     Parallel version (MPI), running on     4 processors

     MPI processes distributed on     1 nodes
     R & G space division:  proc/nbgrp/npool/nimage =       4
     Waiting for input...
     Reading input from standard input
     Message from routine read_cards :
     DEPRECATED: no units specified in ATOMIC_POSITIONS card
     Message from routine read_cards :
     ATOMIC_POSITIONS: units set to alat

     Current dimensions of program PWSCF are:
     Max number of different atomic species (ntypx) = 10
     Max number of k-points (npk) =  40000
     Max angular momentum in pseudopotentials (lmaxx) =  3

     Subspace diagonalization in iterative solution of the eigenvalue problem:
     a serial algorithm will be used


     Parallelization info
     --------------------
     sticks:   dense  smooth     PW     G-vecs:    dense   smooth      PW
     Min          63      63     21                  682      682     132
     Max          64      64     22                  686      686     135
     Sum         253     253     85                 2733     2733     531



     bravais-lattice index     =            2
     lattice parameter (alat)  =      10.2000  a.u.
     unit-cell volume          =     265.3020 (a.u.)^3
     number of atoms/cell      =            2
     number of atomic types    =            1
     number of electrons       =         8.00
     number of Kohn-Sham states=            4
     kinetic-energy cutoff     =      18.0000  Ry
     charge density cutoff     =      72.0000  Ry
     convergence threshold     =      1.0E-08
     mixing beta               =       0.7000
     number of iterations used =            8  plain     mixing
     Exchange-correlation      = SLA PZ NOGX NOGC ( 1  1  0  0 0 0)

     celldm(1)=  10.200000  celldm(2)=   0.000000  celldm(3)=   0.000000
     celldm(4)=   0.000000  celldm(5)=   0.000000  celldm(6)=   0.000000

     crystal axes: (cart. coord. in units of alat)
               a(1) = (  -0.500000   0.000000   0.500000 )  
               a(2) = (   0.000000   0.500000   0.500000 )  
               a(3) = (  -0.500000   0.500000   0.000000 )  

     reciprocal axes: (cart. coord. in units 2 pi/alat)
               b(1) = ( -1.000000 -1.000000  1.000000 )  
               b(2) = (  1.000000  1.000000  1.000000 )  
               b(3) = ( -1.000000  1.000000 -1.000000 )  


     PseudoPot. # 1 for Si read from file:
     /home/fabrizio/q-e/pseudo/Si.pz-vbc.UPF
     MD5 check sum: 9f25e6ff280f3123e9b3a84715b2e9c9
     Pseudo is Norm-conserving, Zval =  4.0
     Generated by new atomic code, or converted to UPF format
     Using radial grid of  431 points,  2 beta functions with: 
                l(1) =   0
                l(2) =   1

     atomic species   valence    mass     pseudopotential
        Si             4.00    28.08600     Si( 1.00)

     48 Sym. Ops., with inversion, found (24 have fractional translation)



   Cartesian axes

     site n.     atom                  positions (alat units)
         1           Si  tau(   1) = (   0.0000000   0.0000000   0.0000000  )
         2           Si  tau(   2) = (   0.2500000   0.2500000   0.2500000  )

     number of k points=    10
                       cart. coord. in units 2pi/alat
        k(    1) = (   0.1250000   0.1250000   0.1250000), wk =   0.0625000
        k(    2) = (   0.1250000   0.1250000   0.3750000), wk =   0.1875000
        k(    3) = (   0.1250000   0.1250000   0.6250000), wk =   0.1875000
        k(    4) = (   0.1250000   0.1250000   0.8750000), wk =   0.1875000
        k(    5) = (   0.1250000   0.3750000   0.3750000), wk =   0.1875000
        k(    6) = (   0.1250000   0.3750000   0.6250000), wk =   0.3750000
        k(    7) = (   0.1250000   0.3750000   0.8750000), wk =   0.3750000
        k(    8) = (   0.1250000   0.6250000   0.6250000), wk =   0.1875000
        k(    9) = (   0.3750000   0.3750000   0.3750000), wk =   0.0625000
        k(   10) = (   0.3750000   0.3750000   0.6250000), wk =   0.1875000

     Dense  grid:     2733 G-vectors     FFT dimensions: (  20,  20,  20)

     Estimated max dynamical RAM per process >       0.61 MB

     Estimated total dynamical RAM >       2.42 MB

     Initial potential from superposition of free atoms

     starting charge    7.99901, renormalised to    8.00000
     Starting wfcs are    8 randomized atomic wfcs

     total cpu time spent up to now is        0.4 secs

     Self-consistent Calculation

     iteration #  1     ecut=    18.00 Ry     beta= 0.70
     CG style diagonalization
     ethr =  1.00E-02,  avg # of iterations =  3.0

     Threshold (ethr) on eigenvalues was too large:
     Diagonalizing with lowered threshold

     CG style diagonalization
     ethr =  7.78E-04,  avg # of iterations =  2.0

     total cpu time spent up to now is        0.5 secs

     total energy              =     -15.84091630 Ry
     Harris-Foulkes estimate   =     -15.86196769 Ry
     estimated scf accuracy    <       0.06153621 Ry

     iteration #  2     ecut=    18.00 Ry     beta= 0.70
     CG style diagonalization
     ethr =  7.69E-04,  avg # of iterations =  3.0

     total cpu time spent up to now is        0.6 secs

     total energy              =     -15.84402044 Ry
     Harris-Foulkes estimate   =     -15.84433077 Ry
     estimated scf accuracy    <       0.00216250 Ry

     iteration #  3     ecut=    18.00 Ry     beta= 0.70
     CG style diagonalization
     ethr =  2.70E-05,  avg # of iterations =  3.8

     total cpu time spent up to now is        0.6 secs

     total energy              =     -15.84450651 Ry
     Harris-Foulkes estimate   =     -15.84454243 Ry
     estimated scf accuracy    <       0.00007508 Ry

     iteration #  4     ecut=    18.00 Ry     beta= 0.70
     CG style diagonalization
     ethr =  9.39E-07,  avg # of iterations =  4.1

     total cpu time spent up to now is        0.7 secs

     total energy              =     -15.84452598 Ry
     Harris-Foulkes estimate   =     -15.84452960 Ry
     estimated scf accuracy    <       0.00000806 Ry

     iteration #  5     ecut=    18.00 Ry     beta= 0.70
     CG style diagonalization
     ethr =  1.01E-07,  avg # of iterations =  3.9

     total cpu time spent up to now is        0.8 secs

     total energy              =     -15.84452722 Ry
     Harris-Foulkes estimate   =     -15.84452725 Ry
     estimated scf accuracy    <       0.00000007 Ry

     iteration #  6     ecut=    18.00 Ry     beta= 0.70
     CG style diagonalization
     ethr =  8.22E-10,  avg # of iterations =  4.5

     total cpu time spent up to now is        0.9 secs

     End of self-consistent calculation

          k = 0.1250 0.1250 0.1250 (   335 PWs)   bands (ev):

    -5.6039   4.6467   5.9568   5.9568

          k = 0.1250 0.1250 0.3750 (   338 PWs)   bands (ev):

    -5.0584   3.0175   4.9012   4.9909

          k = 0.1250 0.1250 0.6250 (   337 PWs)   bands (ev):

    -3.9883   1.3106   3.5165   3.9919

          k = 0.1250 0.1250 0.8750 (   343 PWs)   bands (ev):

    -2.4615  -0.5936   2.7226   3.5069

          k = 0.1250 0.3750 0.3750 (   341 PWs)   bands (ev):

    -4.5395   1.5909   3.8905   5.4637

          k = 0.1250 0.3750 0.6250 (   340 PWs)   bands (ev):

    -3.5490   0.3751   2.8565   4.2745

          k = 0.1250 0.3750 0.8750 (   347 PWs)   bands (ev):

    -2.2719  -0.7033   2.0784   3.2106

          k = 0.1250 0.6250 0.6250 (   344 PWs)   bands (ev):

    -2.8220  -0.4390   2.1614   4.3230

          k = 0.3750 0.3750 0.3750 (   350 PWs)   bands (ev):

    -4.0849   0.2304   5.1432   5.1432

          k = 0.3750 0.3750 0.6250 (   343 PWs)   bands (ev):

    -3.3347  -0.5842   3.9340   4.6556

     highest occupied level (ev):     5.9568

!    total energy              =     -15.84452726 Ry
     Harris-Foulkes estimate   =     -15.84452726 Ry
     estimated scf accuracy    <          1.1E-09 Ry

     The total energy is the sum of the following terms:

     one-electron contribution =       4.79352741 Ry
     hartree contribution      =       1.07664069 Ry
     xc contribution           =      -4.81493670 Ry
     ewald contribution        =     -16.89975867 Ry

     convergence has been achieved in   6 iterations

     Forces acting on atoms (cartesian axes, Ry/au):

     atom    1 type  1   force =     0.00000000   -0.00000000    0.00000000
     atom    2 type  1   force =    -0.00000000    0.00000000    0.00000000

     Total force =     0.000000     Total SCF correction =     0.000000


     Computing stress (Cartesian axis) and pressure

          total   stress  (Ry/bohr**3)                   (kbar)     P=  -10.24
  -0.00006961  -0.00000000  -0.00000000        -10.24     -0.00     -0.00
  -0.00000000  -0.00006961  -0.00000000         -0.00    -10.24     -0.00
  -0.00000000  -0.00000000  -0.00006961         -0.00     -0.00    -10.24


     Writing output data file silicon.save/

     init_run     :      0.12s CPU      0.32s WALL (       1 calls)
     electrons    :      0.18s CPU      0.43s WALL (       1 calls)
     forces       :      0.00s CPU      0.01s WALL (       1 calls)
     stress       :      0.01s CPU      0.03s WALL (       1 calls)

     Called by init_run:
     wfcinit      :      0.01s CPU      0.05s WALL (       1 calls)
     potinit      :      0.00s CPU      0.01s WALL (       1 calls)
     hinit0       :      0.02s CPU      0.03s WALL (       1 calls)

     Called by electrons:
     c_bands      :      0.15s CPU      0.36s WALL (       7 calls)
     sum_band     :      0.02s CPU      0.05s WALL (       7 calls)
     v_of_rho     :      0.00s CPU      0.01s WALL (       7 calls)
     mix_rho      :      0.00s CPU      0.01s WALL (       7 calls)

     Called by c_bands:
     init_us_2    :      0.01s CPU      0.01s WALL (     170 calls)
     ccgdiagg     :      0.12s CPU      0.31s WALL (      70 calls)
     wfcrot       :      0.04s CPU      0.09s WALL (      60 calls)

     Called by sum_band:

     Called by *cgdiagg:
     h_psi        :      0.11s CPU      0.26s WALL (     828 calls)
     cdiaghg      :      0.00s CPU      0.00s WALL (      60 calls)

     Called by h_psi:
     h_psi:pot    :      0.11s CPU      0.26s WALL (     828 calls)
     h_psi:calbec :      0.02s CPU      0.04s WALL (     828 calls)
     vloc_psi     :      0.08s CPU      0.21s WALL (     828 calls)
     add_vuspsi   :      0.00s CPU      0.00s WALL (     828 calls)
     hs_1psi      :      0.08s CPU      0.18s WALL (     768 calls)
     s_1psi       :      0.02s CPU      0.03s WALL (     768 calls)

     General routines
     calbec       :      0.04s CPU      0.07s WALL (    1646 calls)
     fft          :      0.01s CPU      0.01s WALL (      26 calls)
     ffts         :      0.00s CPU      0.00s WALL (       7 calls)
     fftw         :      0.08s CPU      0.22s WALL (    2376 calls)

     Parallel routines
     fft_scatt_xy :      0.01s CPU      0.02s WALL (    2409 calls)
     fft_scatt_yz :      0.04s CPU      0.18s WALL (    2409 calls)

     PWSCF        :      0.40s CPU      0.94s WALL


   This run was terminated on:  22:29: 9  12Dec2018            

=------------------------------------------------------------------------------=
   JOB DONE.
=------------------------------------------------------------------------------=
